mixintcount/benchmarks/random_v2l/8_8_1995.in
32 10
#	x1	x2	x3	x4	x5	x6	x7	x8;		0 = Real; 1 = Integer
	1	1	1	1	1	1	1	1
1	-7	-3	-9	0	5	5	-8	-8	851
1	1	0	6	2	-2	7	0	-2	374
1	-6	0	-5	-8	7	-10	1	6	406
1	10	-6	-9	4	-2	-4	5	6	1262
1	-3	8	-8	1	-4	1	-4	8	891
1	-8	-4	-3	-9	0	5	-6	2	464
1	-7	-10	-5	6	-10	-2	7	2	1341
1	-9	-4	-3	-9	2	-6	-8	-8	759
1	3	-2	-4	-1	-2	0	4	-3	358
1	-1	0	-1	9	3	-1	-9	-2	-1518
1	-3	-7	9	-10	-6	-7	-3	-7	1066
1	-1	-7	5	8	4	-10	-9	-7	-1322
1	1	7	4	0	-7	-7	7	10	-159
1	-5	10	-9	1	-4	-8	-1	-3	144
1	2	2	-4	-6	-9	-1	9	7	-532
1	9	8	-4	-5	-2	-10	9	6	1564
1	1	0	0	0	0	0	0	0	1995
1	-1	0	0	0	0	0	0	0	1995
1	0	1	0	0	0	0	0	0	1995
1	0	-1	0	0	0	0	0	0	1995
1	0	0	1	0	0	0	0	0	1995
1	0	0	-1	0	0	0	0	0	1995
1	0	0	0	1	0	0	0	0	1995
1	0	0	0	-1	0	0	0	0	1995
1	0	0	0	0	1	0	0	0	1995
1	0	0	0	0	-1	0	0	0	1995
1	0	0	0	0	0	1	0	0	1995
1	0	0	0	0	0	-1	0	0	1995
1	0	0	0	0	0	0	1	0	1995
1	0	0	0	0	0	0	-1	0	1995
1	0	0	0	0	0	0	0	1	1995
1	0	0	0	0	0	0	0	-1	1995
